true true false
presolving:
presolving (0 rounds: 0 fast, 0 medium, 0 exhaustive):
 0 deleted vars, 0 deleted constraints, 0 added constraints, 0 tightened bounds, 0 added holes, 0 changed sides, 0 changed coefficients
 0 implications, 0 cliques
presolved problem has 80 variables (80 bin, 0 int, 0 impl, 0 cont) and 70 constraints
     70 constraints of type <linear>
transformed objective value is always integral (scale: 1)
Presolving Time: 0.00

 time | node  | left  |LP iter|LP it/n|mem/heur|mdpt |vars |cons |rows |cuts |sepa|confs|strbr|  dualbound   | primalbound  |  gap   | compl. 
p 0.0s|     1 |     0 |     0 |     - |shiftand|   0 |  80 |  70 |  70 |   0 |  0 |   0 |   0 |      --      | 1.000000e+01 |    Inf | unknown
 time | node  | left  |LP iter|LP it/n|mem/heur|mdpt |vars |cons |rows |cuts |sepa|confs|strbr|  dualbound   | primalbound  |  gap   | compl. 
  0.1s|     1 |     0 |    54 |     - |  3905k |   0 |1100 |  70 |  70 |   0 |  0 |   0 |   0 | 1.000000e+00 | 1.000000e+01 | 900.00%| unknown
 time | node  | left  |LP iter|LP it/n|mem/heur|mdpt |vars |cons |rows |cuts |sepa|confs|strbr|  dualbound   | primalbound  |  gap   | compl. 
  317s|     1 |     0 |  1338 |     - |    14M |   0 |4563 |  70 |  70 |   0 |  0 |   0 |   0 | 9.000000e+00 | 1.000000e+01 |  11.11%| unknown
 time | node  | left  |LP iter|LP it/n|mem/heur|mdpt |vars |cons |rows |cuts |sepa|confs|strbr|  dualbound   | primalbound  |  gap   | compl. 
  317s|     1 |     2 |  3348 |     - |    15M |   0 |4563 |  70 |  70 |   0 |  1 |   0 |   0 | 9.000000e+00 | 1.000000e+01 |  11.11%| unknown
 time | node  | left  |LP iter|LP it/n|mem/heur|mdpt |vars |cons |rows |cuts |sepa|confs|strbr|  dualbound   | primalbound  |  gap   | compl. 
  317s|     2 |     3 |  3442 |  94.0 |    15M |   1 |4563 |  70 |  70 |   0 |  1 |   0 |   0 | 9.000000e+00 | 1.000000e+01 |  11.11%| unknown
 time | node  | left  |LP iter|LP it/n|mem/heur|mdpt |vars |cons |rows |cuts |sepa|confs|strbr|  dualbound   | primalbound  |  gap   | compl. 
  317s|     3 |     4 |  3480 |  66.0 |    15M |   1 |4563 |  70 |  70 |   0 |  1 |   0 |   0 | 9.000000e+00 | 1.000000e+01 |  11.11%| unknown
 time | node  | left  |LP iter|LP it/n|mem/heur|mdpt |vars |cons |rows |cuts |sepa|confs|strbr|  dualbound   | primalbound  |  gap   | compl. 
  317s|     4 |     5 |  3511 |  54.3 |    16M |   2 |4563 |  70 |  70 |   0 |  1 |   0 |   0 | 9.000000e+00 | 1.000000e+01 |  11.11%| unknown
 time | node  | left  |LP iter|LP it/n|mem/heur|mdpt |vars |cons |rows |cuts |sepa|confs|strbr|  dualbound   | primalbound  |  gap   | compl. 
  318s|     5 |     6 |  4494 | 286.5 |    16M |   2 |4563 |  70 |  70 |   0 |  1 |   0 |   0 | 9.000000e+00 | 1.000000e+01 |  11.11%| unknown
 time | node  | left  |LP iter|LP it/n|mem/heur|mdpt |vars |cons |rows |cuts |sepa|confs|strbr|  dualbound   | primalbound  |  gap   | compl. 
  318s|     6 |     7 |  4507 | 231.8 |    16M |   3 |4563 |  70 |  70 |   0 |  1 |   0 |   0 | 9.000000e+00 | 1.000000e+01 |  11.11%| unknown
 time | node  | left  |LP iter|LP it/n|mem/heur|mdpt |vars |cons |rows |cuts |sepa|confs|strbr|  dualbound   | primalbound  |  gap   | compl. 
  318s|     7 |     8 |  4557 | 201.5 |    16M |   4 |4563 |  70 |  70 |   0 |  1 |   0 |   0 | 9.000000e+00 | 1.000000e+01 |  11.11%| unknown
 time | node  | left  |LP iter|LP it/n|mem/heur|mdpt |vars |cons |rows |cuts |sepa|confs|strbr|  dualbound   | primalbound  |  gap   | compl. 
  318s|     8 |     9 |  4601 | 179.0 |    16M |   5 |4563 |  70 |  70 |   0 |  1 |   0 |   0 | 9.000000e+00 | 1.000000e+01 |  11.11%| unknown
 time | node  | left  |LP iter|LP it/n|mem/heur|mdpt |vars |cons |rows |cuts |sepa|confs|strbr|  dualbound   | primalbound  |  gap   | compl. 
  319s|     9 |    10 |  4683 | 166.9 |    16M |   6 |4563 |  70 |  70 |   0 |  1 |   0 |   0 | 9.000000e+00 | 1.000000e+01 |  11.11%| unknown
 time | node  | left  |LP iter|LP it/n|mem/heur|mdpt |vars |cons |rows |cuts |sepa|confs|strbr|  dualbound   | primalbound  |  gap   | compl. 
  319s|    10 |    11 |  4763 | 157.2 |    16M |   6 |4563 |  70 |  70 |   0 |  1 |   0 |   0 | 9.000000e+00 | 1.000000e+01 |  11.11%| unknown
 time | node  | left  |LP iter|LP it/n|mem/heur|mdpt |vars |cons |rows |cuts |sepa|confs|strbr|  dualbound   | primalbound  |  gap   | compl. 
  319s|    11 |    12 |  4830 | 148.2 |    16M |   7 |4563 |  70 |  70 |   0 |  1 |   0 |   0 | 9.000000e+00 | 1.000000e+01 |  11.11%| unknown
 time | node  | left  |LP iter|LP it/n|mem/heur|mdpt |vars |cons |rows |cuts |sepa|confs|strbr|  dualbound   | primalbound  |  gap   | compl. 
  319s|    12 |    13 |  4873 | 138.6 |    16M |   8 |4563 |  70 |  70 |   0 |  1 |   0 |   0 | 9.000000e+00 | 1.000000e+01 |  11.11%| unknown
 time | node  | left  |LP iter|LP it/n|mem/heur|mdpt |vars |cons |rows |cuts |sepa|confs|strbr|  dualbound   | primalbound  |  gap   | compl. 
  320s|    13 |    14 |  4893 | 128.8 |    16M |   9 |4563 |  70 |  70 |   0 |  1 |   0 |   0 | 9.000000e+00 | 1.000000e+01 |  11.11%| unknown
 time | node  | left  |LP iter|LP it/n|mem/heur|mdpt |vars |cons |rows |cuts |sepa|confs|strbr|  dualbound   | primalbound  |  gap   | compl. 
  320s|    14 |    15 |  4963 | 124.2 |    17M |   9 |4563 |  70 |  70 |   0 |  1 |   0 |   0 | 9.000000e+00 | 1.000000e+01 |  11.11%| unknown
 time | node  | left  |LP iter|LP it/n|mem/heur|mdpt |vars |cons |rows |cuts |sepa|confs|strbr|  dualbound   | primalbound  |  gap   | compl. 
  320s|    15 |    16 |  5024 | 119.7 |    17M |  10 |4563 |  70 |  70 |   0 |  1 |   0 |   0 | 9.000000e+00 | 1.000000e+01 |  11.11%| unknown
 time | node  | left  |LP iter|LP it/n|mem/heur|mdpt |vars |cons |rows |cuts |sepa|confs|strbr|  dualbound   | primalbound  |  gap   | compl. 
  321s|    16 |    17 |  5030 | 112.1 |    17M |  11 |4563 |  70 |  70 |   0 |  1 |   0 |   0 | 9.000000e+00 | 1.000000e+01 |  11.11%| unknown
 time | node  | left  |LP iter|LP it/n|mem/heur|mdpt |vars |cons |rows |cuts |sepa|confs|strbr|  dualbound   | primalbound  |  gap   | compl. 
  321s|    17 |    18 |  5041 | 105.8 |    17M |  12 |4563 |  70 |  70 |   0 |  1 |   0 |   0 | 9.000000e+00 | 1.000000e+01 |  11.11%| unknown
 time | node  | left  |LP iter|LP it/n|mem/heur|mdpt |vars |cons |rows |cuts |sepa|confs|strbr|  dualbound   | primalbound  |  gap   | compl. 
  321s|    18 |    19 |  5051 | 100.2 |    17M |  13 |4563 |  70 |  70 |   0 |  1 |   0 |   0 | 9.000000e+00 | 1.000000e+01 |  11.11%| unknown
 time | node  | left  |LP iter|LP it/n|mem/heur|mdpt |vars |cons |rows |cuts |sepa|confs|strbr|  dualbound   | primalbound  |  gap   | compl. 
d 322s|    19 |     0 |  5474 | 118.1 |fracdivi|  14 |5019 |  70 |  70 |   0 |  1 |   0 |   0 | 9.000000e+00 | 9.000000e+00 |   0.00%| 100.00%

SCIP Status        : problem is solved [optimal solution found]
Solving Time (sec) : 321.95
Solving Nodes      : 19
Primal Bound       : +9.00000000000000e+00 (3 solutions)
Dual Bound         : +9.00000000000000e+00
Gap                : 0.00 %
Running with parallel: True bidir: True symbreak: False
Number of Nodes:  70
49.17434402332361% holds
starting cheapest insertion heuristic
Heuristic without TSP improvement:  10
Heuristic without TSP improvement time:  0.1
Heuristic Sol:  9
Heuristic total time:  0.1
[[27, 69, 58, 7, 39, 66, 4, 9], [42, 36, 29, 31, 13, 37, 16, 35, 24], [56, 40, 15, 2, 41, 33, 50, 10, 47, 38, 0], [51, 12, 49, 26, 3, 21, 60], [59, 54, 44, 34, 45, 11], [61, 18, 57, 5, 55, 1, 8, 20], [68, 32, 14, 28, 62, 67], [65, 43, 23, 63, 48, 6, 52], [64, 19, 22, 17, 53, 46, 25, 30]]
Instance path:  /home/htc/mghannam/SCRATCH/lccp-rust/data/t84_st70.npcc
Timelimit:  7200
Heuristic without TSP improvement:  10
Heuristic without TSP improvement time:  0.1
Heuristic Sol:  10
Heuristic total time:  0.5
at 1 zero_duals: 60
at1, LP obj: 10.0 n_added_paths: 1020
at 1 zero_duals: 38
at1, LP obj: 10.0 n_added_paths: 944
at 1 zero_duals: 29
at1, LP obj: 9.555555555555555 n_added_paths: 888
at 1 zero_duals: 17
at1, LP obj: 9.192644483362523 n_added_paths: 732
at 1 zero_duals: 10
at1, LP obj: 8.686686686686686 n_added_paths: 314
at 1 zero_duals: 11
Switching to elementary pricing
at1, LP obj: 8.538095238095238 n_added_paths: 294
updated lowerbound from 1.0 to 3
at 1 zero_duals: 6
Switching to elementary pricing
at1, LP obj: 8.436347517730496 n_added_paths: 131
updated lowerbound from 3.0 to 7
at 1 zero_duals: 3
Switching to elementary pricing
at1, LP obj: 8.411538461538461 n_added_paths: 23
updated lowerbound from 7.0 to 8
at 1 zero_duals: 4
Switching to elementary pricing
at1, LP obj: 8.401048244506189 n_added_paths: 136
at 1 zero_duals: 4
Switching to elementary pricing
at1, LP obj: 8.400630914826499 n_added_paths: 1
updated lowerbound from 8.0 to 9
Gap too small = 0, stopping pricing with lb = 9
Gap too small = 0, stopping pricing with lb = 9
Gap too small = 0, stopping pricing with lb = 9
Gap too small = 0, stopping pricing with lb = 9
Gap too small = 0, stopping pricing with lb = 9
Gap too small = 0, stopping pricing with lb = 9
Gap too small = 0, stopping pricing with lb = 9
Gap too small = 0, stopping pricing with lb = 9
Gap too small = 0, stopping pricing with lb = 9
Gap too small = 0, stopping pricing with lb = 9
Gap too small = 0, stopping pricing with lb = 9
Gap too small = 0, stopping pricing with lb = 9
Gap too small = 0, stopping pricing with lb = 9
Gap too small = 0, stopping pricing with lb = 9
Gap too small = 0, stopping pricing with lb = 9
Gap too small = 0, stopping pricing with lb = 9
Gap too small = 0, stopping pricing with lb = 9
Gap too small = 0, stopping pricing with lb = 9
at 36 zero_duals: 8
at36, LP obj: 9.089368227582746 n_added_paths: 456
Gap too small = 0, stopping pricing with lb = 9
Best solution found:
[65, 52, 11, 54, 59, 65] 1.0 1.0
checking cycle [65, 52, 11, 54, 59, 65]
[65, 52, 11, 54, 59, 65] 88 87
[27, 69, 7, 39, 58, 66, 4, 9, 27] 1.0 1.0
checking cycle [27, 69, 7, 39, 58, 66, 4, 9, 27]
[27, 69, 7, 39, 58, 66, 4, 9, 27] 84 80
[60, 18, 57, 51, 49, 21, 60] 1.0 1.0
checking cycle [60, 18, 57, 51, 49, 21, 60]
[60, 18, 57, 51, 49, 21, 60] 94 87
[3, 5, 8, 26, 12, 3] 1.0 1.0
checking cycle [3, 5, 8, 26, 12, 3]
[3, 5, 8, 26, 12, 3] 142 110
[1, 55, 62, 14, 28, 32, 68, 67, 1] 1.0 1.0
checking cycle [1, 55, 62, 14, 28, 32, 68, 67, 1]
[1, 55, 62, 14, 28, 32, 68, 67, 1] 84 82
[34, 45, 64, 19, 22, 30, 61, 20, 34] 1.0 1.0
checking cycle [34, 45, 64, 19, 22, 30, 61, 20, 34]
[34, 45, 64, 19, 22, 30, 61, 20, 34] 89 86
[6, 48, 43, 23, 63, 25, 46, 17, 53, 6] 1.0 1.0
checking cycle [6, 48, 43, 23, 63, 25, 46, 17, 53, 6]
[6, 48, 43, 23, 63, 25, 46, 17, 53, 6] 90 87
[16, 37, 44, 13, 31, 35, 29, 36, 24, 42, 16] 1.0 1.0
checking cycle [16, 37, 44, 13, 31, 35, 29, 36, 24, 42, 16]
[16, 37, 44, 13, 31, 35, 29, 36, 24, 42, 16] 115 111
[50, 33, 41, 56, 40, 15, 2, 0, 38, 47, 10, 50] 1.0 1.0
checking cycle [50, 33, 41, 56, 40, 15, 2, 0, 38, 47, 10, 50]
[50, 33, 41, 56, 40, 15, 2, 0, 38, 47, 10, 50] 97 96
